n=588;
k_min=13;
k_max=13;
M=[| 73, 71, 81, 75, 76, 82, 80, 81, 74, 71, 75, 82, 72
 | 73, 71, 81, 75, 76, 83, 80, 81, 74, 71, 75, 82, 72
 | 73, 71, 81, 75, 76, 83, 80, 81, 74, 71, 75, 82, 72
 | 73, 72, 81, 75, 75, 83, 80, 81, 74, 71, 75, 82, 72
 | 73, 72, 81, 75, 75, 83, 80, 82, 74, 71, 75, 82, 72
 | 74, 72, 81, 75, 75, 82, 80, 82, 74, 71, 75, 82, 72
 | 74, 72, 81, 74, 75, 83, 79, 82, 74, 71, 74, 82, 72
 | 74, 72, 80, 75, 75, 82, 79, 83, 74, 71, 74, 82, 72
 | 74, 72, 80, 75, 75, 82, 79, 83, 74, 71, 74, 82, 73
 | 74, 72, 80, 75, 75, 82, 79, 83, 74, 71, 74, 82, 73
 | 74, 72, 81, 75, 75, 81, 79, 83, 74, 72, 74, 82, 73
 | 75, 72, 80, 75, 76, 81, 79, 82, 74, 72, 74, 81, 73
 | 75, 72, 80, 75, 76, 80, 79, 82, 74, 72, 74, 81, 73
 | 75, 72, 81, 75, 76, 80, 79, 83, 74, 72, 74, 81, 73
 | 75, 72, 81, 75, 76, 79, 79, 82, 74, 72, 74, 81, 73
 | 75, 72, 81, 75, 76, 79, 79, 82, 74, 72, 74, 81, 73
 | 75, 72, 81, 75, 76, 79, 79, 82, 74, 72, 74, 81, 73
 | 75, 72, 81, 76, 76, 78, 80, 82, 74, 71, 75, 81, 73
 | 73, 72, 81, 75, 76, 83, 80, 80, 74, 71, 75, 81, 72
 | 73, 72, 81, 75, 76, 83, 80, 81, 74, 71, 75, 81, 72
 | 73, 72, 81, 75, 76, 83, 80, 81, 74, 71, 75, 81, 72
 | 73, 72, 81, 75, 76, 83, 80, 81, 74, 71, 75, 82, 72
 | 73, 72, 81, 75, 76, 83, 80, 81, 74, 71, 75, 82, 72
 | 73, 72, 81, 75, 75, 83, 80, 82, 74, 71, 75, 82, 72
 | 73, 72, 81, 75, 75, 83, 80, 82, 74, 71, 75, 82, 72
 | 74, 72, 81, 75, 75, 82, 80, 82, 74, 71, 75, 82, 72
 | 74, 72, 80, 74, 75, 83, 79, 82, 74, 71, 74, 81, 72
 | 74, 72, 80, 75, 75, 82, 79, 83, 74, 71, 74, 81, 73
 | 74, 72, 80, 75, 75, 82, 79, 83, 74, 71, 74, 82, 73
 | 74, 72, 80, 75, 75, 82, 79, 83, 74, 71, 74, 82, 73
 | 74, 72, 80, 75, 75, 82, 79, 83, 74, 72, 74, 82, 73
 | 74, 72, 80, 75, 75, 81, 79, 83, 74, 72, 74, 82, 73
 | 74, 72, 80, 75, 75, 81, 79, 83, 74, 72, 74, 81, 73
 | 74, 72, 80, 75, 75, 81, 79, 83, 74, 72, 74, 81, 73
 | 75, 72, 80, 75, 76, 80, 79, 83, 74, 72, 74, 81, 73
 | 75, 72, 80, 75, 76, 80, 79, 83, 74, 72, 74, 81, 73
 | 75, 72, 80, 75, 76, 81, 79, 82, 74, 72, 74, 81, 73
 | 75, 72, 80, 75, 76, 80, 79, 83, 74, 72, 74, 81, 73
 | 75, 72, 80, 75, 76, 79, 79, 82, 74, 72, 74, 81, 74
 | 75, 72, 80, 75, 76, 79, 79, 82, 74, 72, 74, 81, 74
 | 75, 72, 81, 76, 76, 79, 79, 82, 74, 72, 74, 80, 73
 | 75, 72, 81, 76, 76, 78, 79, 82, 74, 72, 75, 80, 73
 | 75, 72, 81, 76, 76, 78, 79, 83, 74, 72, 75, 80, 73
 | 73, 72, 81, 75, 76, 83, 80, 80, 74, 71, 75, 81, 72
 | 73, 72, 81, 75, 76, 83, 80, 81, 74, 71, 75, 81, 72
 | 73, 72, 81, 75, 76, 83, 80, 81, 74, 71, 75, 81, 72
 | 73, 72, 81, 75, 76, 83, 80, 81, 74, 71, 75, 81, 72
 | 73, 72, 81, 75, 76, 83, 80, 81, 74, 71, 75, 81, 72
 | 73, 72, 81, 75, 75, 83, 80, 82, 74, 71, 75, 81, 72
 | 73, 72, 81, 75, 76, 83, 80, 81, 74, 71, 75, 81, 72
 | 74, 72, 80, 75, 75, 83, 80, 82, 74, 71, 75, 81, 72
 | 74, 72, 80, 75, 75, 83, 79, 82, 74, 71, 75, 81, 72
 | 74, 72, 80, 75, 75, 83, 79, 82, 74, 71, 75, 81, 72
 | 74, 72, 80, 75, 75, 83, 79, 82, 74, 71, 75, 81, 72
 | 74, 72, 80, 75, 75, 83, 79, 83, 74, 71, 74, 81, 73
 | 74, 72, 80, 75, 75, 82, 79, 83, 74, 72, 74, 81, 73
 | 74, 72, 80, 75, 75, 82, 79, 83, 74, 72, 74, 81, 73
 | 74, 72, 80, 75, 75, 82, 79, 83, 74, 72, 74, 81, 73
 | 74, 72, 80, 75, 75, 82, 79, 83, 74, 72, 74, 81, 73
 | 74, 72, 80, 75, 75, 82, 79, 83, 74, 72, 74, 81, 73
 | 74, 72, 80, 75, 75, 81, 79, 83, 74, 72, 74, 81, 73
 | 75, 72, 80, 75, 75, 81, 79, 83, 74, 72, 74, 81, 73
 | 75, 72, 80, 75, 75, 80, 79, 83, 74, 72, 74, 81, 73
 | 75, 72, 80, 75, 75, 81, 79, 83, 74, 72, 74, 81, 73
 | 75, 72, 80, 75, 75, 81, 79, 83, 74, 72, 74, 81, 73
 | 74, 72, 80, 75, 75, 81, 79, 83, 74, 72, 74, 81, 73
 | 75, 72, 80, 75, 75, 81, 79, 83, 74, 72, 74, 81, 73
 | 75, 72, 80, 75, 75, 81, 79, 83, 74, 72, 74, 81, 73
 | 75, 72, 80, 75, 76, 80, 79, 83, 74, 72, 74, 81, 73
 | 75, 72, 80, 75, 76, 80, 79, 83, 74, 72, 74, 81, 73
 | 75, 72, 80, 75, 76, 80, 79, 83, 74, 72, 74, 81, 74
 | 75, 72, 80, 75, 76, 79, 79, 82, 74, 72, 74, 80, 74
 | 75, 72, 80, 75, 76, 79, 79, 82, 74, 72, 74, 80, 74
 | 75, 72, 80, 76, 76, 79, 79, 82, 74, 72, 74, 80, 74
 | 75, 72, 80, 76, 76, 78, 79, 82, 74, 72, 75, 80, 74
 | 75, 72, 80, 76, 76, 78, 79, 82, 74, 72, 75, 80, 74
 | 75, 72, 81, 76, 76, 78, 79, 83, 74, 72, 75, 80, 73
 | 74, 72, 80, 75, 75, 81, 79, 83, 74, 72, 74, 81, 73
 | 74, 72, 80, 75, 75, 82, 79, 83, 74, 72, 74, 81, 73
 | 74, 72, 80, 75, 75, 82, 79, 83, 74, 72, 74, 81, 73
 | 74, 72, 80, 75, 75, 82, 79, 83, 74, 72, 74, 81, 73
 | 74, 72, 80, 75, 75, 82, 79, 83, 74, 72, 74, 81, 73
 | 74, 72, 80, 75, 75, 82, 79, 83, 74, 72, 75, 81, 73
 | 74, 72, 80, 75, 75, 82, 79, 82, 74, 72, 75, 81, 73
 | 75, 72, 81, 75, 76, 80, 79, 82, 74, 72, 74, 81, 73
 | 75, 72, 80, 75, 76, 80, 79, 83, 74, 72, 74, 81, 73
 | 75, 72, 80, 75, 76, 80, 79, 83, 74, 72, 74, 81, 73
 | 74, 72, 80, 75, 75, 83, 79, 82, 74, 72, 75, 81, 72
 | 74, 72, 80, 75, 75, 83, 79, 82, 74, 71, 75, 81, 72
 | 74, 72, 80, 75, 75, 83, 79, 82, 74, 71, 75, 81, 72
 | 73, 72, 80, 75, 76, 82, 80, 81, 74, 71, 75, 81, 72
 | 73, 72, 81, 75, 76, 83, 80, 81, 74, 71, 75, 81, 72
 | 73, 72, 81, 75, 76, 83, 80, 81, 74, 71, 75, 81, 72
 | 73, 72, 81, 75, 76, 83, 80, 81, 74, 71, 75, 81, 72
 | 73, 72, 81, 75, 76, 83, 80, 81, 74, 71, 75, 81, 72
 | 73, 72, 81, 75, 76, 83, 80, 80, 74, 71, 75, 81, 72
 | 73, 72, 81, 75, 76, 83, 80, 80, 75, 71, 75, 81, 72
 | 73, 72, 81, 75, 76, 83, 80, 80, 74, 71, 75, 81, 72
 | 75, 72, 80, 75, 76, 80, 79, 83, 74, 72, 74, 81, 73
 | 75, 72, 80, 75, 76, 80, 79, 83, 74, 72, 74, 81, 73
 | 75, 72, 81, 75, 76, 80, 79, 83, 74, 72, 74, 81, 73
 | 75, 72, 81, 75, 76, 80, 79, 83, 74, 72, 74, 81, 73
 | 74, 72, 80, 75, 75, 81, 79, 83, 74, 72, 74, 82, 73
 | 74, 72, 81, 75, 76, 81, 79, 82, 74, 72, 74, 81, 73
 | 75, 72, 81, 75, 76, 79, 79, 82, 74, 72, 74, 81, 73
 | 75, 72, 81, 75, 76, 79, 79, 82, 74, 72, 74, 81, 73
 | 75, 72, 80, 76, 76, 78, 79, 82, 74, 72, 75, 80, 73
 | 75, 72, 80, 76, 76, 78, 79, 82, 74, 72, 75, 80, 74
 | 73, 71, 82, 75, 76, 81, 81, 81, 74, 71, 75, 83, 72
 | 73, 71, 82, 75, 76, 82, 80, 81, 74, 71, 75, 83, 72
 | 73, 71, 81, 75, 76, 82, 80, 81, 74, 71, 74, 83, 72
 | 74, 71, 81, 75, 76, 82, 80, 81, 74, 71, 74, 83, 72
 | 74, 71, 81, 75, 75, 82, 80, 82, 74, 71, 74, 83, 72
 | 74, 71, 81, 75, 76, 81, 80, 82, 74, 71, 74, 83, 72
 | 74, 71, 81, 75, 76, 81, 80, 81, 74, 71, 74, 82, 72
 | 74, 71, 82, 75, 76, 80, 80, 81, 74, 71, 75, 83, 72
 | 74, 71, 82, 75, 76, 81, 81, 81, 74, 71, 75, 83, 72
 | 74, 71, 82, 75, 76, 81, 81, 80, 74, 71, 75, 83, 72
 | 74, 71, 82, 75, 76, 81, 80, 81, 74, 71, 75, 83, 72
 | 74, 71, 82, 75, 76, 81, 80, 81, 74, 71, 75, 83, 72
 | 74, 71, 81, 75, 76, 81, 80, 81, 74, 71, 74, 83, 72
 | 74, 71, 82, 75, 76, 81, 80, 81, 74, 71, 74, 83, 72
 | 74, 71, 82, 75, 76, 81, 80, 81, 74, 71, 74, 83, 72
 | 74, 71, 82, 75, 76, 81, 80, 81, 74, 71, 75, 83, 72
 | 74, 71, 82, 75, 76, 81, 80, 81, 74, 71, 74, 83, 72
 | 74, 71, 81, 75, 76, 81, 80, 81, 74, 71, 74, 83, 72
 | 74, 71, 81, 75, 76, 81, 80, 81, 74, 71, 74, 83, 72
 | 74, 71, 82, 75, 76, 81, 80, 81, 74, 71, 74, 83, 72
 | 74, 71, 82, 75, 76, 81, 80, 81, 74, 71, 74, 82, 72
 | 74, 71, 81, 75, 76, 82, 80, 81, 74, 71, 74, 83, 72
 | 74, 71, 81, 75, 76, 81, 80, 81, 74, 71, 74, 83, 72
 | 74, 71, 81, 75, 76, 81, 80, 81, 74, 71, 74, 82, 72
 | 73, 71, 83, 75, 76, 81, 81, 80, 74, 71, 75, 82, 72
 | 73, 71, 83, 75, 76, 81, 81, 80, 74, 71, 75, 82, 72
 | 74, 71, 83, 75, 76, 80, 81, 80, 74, 71, 75, 82, 72
 | 74, 71, 83, 75, 76, 80, 81, 81, 74, 71, 75, 82, 72
 | 74, 71, 82, 75, 77, 79, 81, 81, 74, 71, 75, 81, 72
 | 74, 71, 83, 75, 77, 79, 82, 80, 74, 71, 75, 81, 72
 | 73, 71, 83, 75, 77, 80, 82, 79, 75, 71, 75, 81, 72
 | 73, 71, 82, 75, 76, 80, 82, 79, 74, 71, 75, 81, 72
 | 73, 71, 83, 75, 76, 81, 81, 80, 74, 71, 75, 82, 72
 | 73, 71, 83, 75, 76, 81, 81, 80, 74, 71, 75, 82, 72
 | 73, 71, 83, 75, 76, 80, 81, 80, 74, 71, 75, 82, 72
 | 74, 71, 83, 75, 76, 80, 81, 80, 74, 71, 75, 82, 72
 | 74, 71, 83, 75, 76, 80, 81, 80, 74, 71, 75, 82, 72
 | 73, 71, 83, 75, 76, 80, 82, 80, 74, 71, 75, 82, 72
 | 73, 71, 83, 75, 76, 80, 82, 80, 74, 71, 75, 81, 72
 | 73, 71, 83, 75, 76, 80, 82, 80, 74, 71, 75, 81, 72
 | 74, 71, 83, 75, 76, 80, 82, 80, 74, 71, 75, 81, 72
 | 73, 71, 83, 75, 76, 80, 82, 80, 74, 71, 75, 81, 72
 | 74, 71, 82, 75, 77, 79, 82, 80, 74, 71, 75, 81, 72
 | 74, 71, 82, 75, 76, 79, 81, 81, 74, 71, 75, 81, 72
 | 73, 71, 83, 75, 76, 80, 82, 80, 74, 71, 75, 82, 72
 | 73, 71, 82, 75, 76, 80, 82, 80, 74, 71, 75, 81, 72
 | 73, 71, 82, 75, 76, 81, 82, 80, 74, 71, 75, 81, 72
 | 74, 71, 82, 75, 76, 79, 81, 80, 74, 71, 75, 81, 72
 | 74, 71, 83, 75, 76, 80, 81, 81, 74, 71, 75, 82, 72
 | 74, 71, 83, 75, 76, 80, 81, 81, 74, 71, 75, 82, 72
 | 73, 71, 83, 75, 76, 80, 81, 80, 74, 71, 75, 82, 72
 | 74, 71, 82, 75, 77, 79, 82, 79, 75, 71, 76, 80, 72
 | 74, 71, 82, 76, 77, 79, 82, 79, 75, 71, 76, 80, 72
 | 74, 71, 82, 76, 77, 78, 82, 79, 75, 71, 76, 80, 72
 | 74, 71, 82, 75, 77, 79, 83, 79, 75, 71, 76, 80, 72
 | 73, 72, 82, 76, 77, 79, 83, 79, 75, 71, 76, 80, 72
 | 74, 72, 81, 76, 77, 79, 83, 78, 76, 71, 77, 79, 72
 | 74, 72, 80, 76, 78, 78, 83, 78, 76, 71, 77, 79, 72
 | 74, 72, 80, 76, 78, 78, 82, 78, 76, 71, 77, 78, 72
 | 74, 72, 80, 77, 78, 77, 83, 78, 76, 71, 77, 78, 72
 | 74, 72, 80, 77, 78, 77, 82, 78, 76, 71, 77, 78, 72
 | 74, 72, 81, 76, 78, 78, 82, 79, 75, 71, 76, 79, 72
 | 74, 72, 81, 76, 77, 78, 82, 79, 75, 71, 76, 79, 72
 | 74, 71, 81, 76, 77, 79, 83, 79, 75, 71, 76, 80, 72
 | 74, 72, 81, 76, 77, 79, 83, 78, 75, 71, 76, 79, 72
 | 74, 72, 81, 76, 77, 79, 83, 78, 76, 71, 77, 79, 72
 | 74, 72, 81, 76, 78, 78, 83, 78, 76, 71, 77, 79, 72
 | 74, 72, 81, 76, 78, 78, 83, 78, 76, 71, 77, 79, 72
 | 74, 72, 81, 76, 77, 78, 83, 79, 75, 71, 76, 79, 72
 | 74, 72, 81, 76, 77, 79, 83, 79, 75, 71, 76, 79, 72
 | 74, 71, 82, 76, 77, 79, 83, 79, 75, 71, 76, 80, 72
 | 74, 72, 81, 76, 77, 79, 83, 78, 76, 71, 76, 79, 72
 | 74, 72, 81, 76, 77, 78, 83, 78, 76, 71, 77, 79, 72
 | 74, 72, 81, 76, 77, 78, 83, 78, 76, 71, 76, 79, 72
 | 74, 71, 82, 76, 77, 79, 83, 79, 75, 71, 76, 80, 72
 | 74, 71, 82, 76, 77, 78, 82, 79, 75, 71, 76, 80, 72
 | 74, 72, 81, 76, 78, 78, 83, 79, 75, 71, 76, 79, 72
 | 74, 72, 81, 76, 78, 78, 83, 78, 76, 71, 77, 79, 72
 | 74, 71, 82, 76, 77, 79, 83, 79, 75, 71, 76, 80, 72
 | 73, 71, 82, 75, 77, 79, 83, 79, 75, 71, 76, 80, 72
 | 73, 71, 82, 75, 77, 80, 83, 79, 75, 71, 76, 80, 72
 | 73, 72, 82, 76, 77, 79, 83, 79, 75, 71, 76, 80, 72
 | 74, 72, 81, 76, 77, 79, 83, 78, 75, 71, 76, 79, 72
 | 74, 72, 81, 76, 77, 79, 83, 79, 75, 71, 76, 80, 72
 | 74, 72, 81, 76, 77, 79, 83, 78, 76, 71, 76, 79, 72
 | 73, 72, 81, 76, 77, 80, 82, 78, 75, 71, 76, 80, 72
 | 74, 71, 82, 76, 77, 79, 83, 79, 75, 71, 76, 80, 72
 | 74, 71, 82, 76, 77, 79, 82, 79, 75, 71, 76, 80, 72
 | 74, 72, 81, 76, 77, 79, 83, 78, 75, 71, 76, 80, 72
 | 73, 71, 82, 75, 77, 80, 83, 79, 75, 71, 76, 80, 72
 | 74, 71, 82, 75, 77, 79, 83, 79, 75, 71, 76, 80, 72
 | 74, 72, 81, 76, 77, 78, 82, 79, 75, 71, 76, 79, 72
 | 74, 72, 81, 76, 78, 77, 83, 78, 76, 71, 77, 79, 72
 | 74, 72, 81, 76, 78, 78, 83, 79, 75, 71, 76, 79, 72
 | 74, 72, 80, 76, 78, 78, 83, 78, 76, 71, 77, 78, 72
 | 74, 72, 80, 76, 78, 78, 83, 78, 76, 71, 77, 78, 72
 | 74, 72, 80, 76, 78, 78, 83, 78, 76, 71, 77, 79, 72
 | 74, 72, 81, 76, 77, 79, 83, 78, 76, 71, 77, 79, 72
 | 74, 72, 81, 76, 77, 79, 82, 78, 76, 71, 77, 79, 72
 | 74, 72, 80, 76, 78, 78, 82, 77, 76, 71, 77, 78, 72
 | 74, 72, 81, 76, 78, 78, 83, 78, 76, 71, 77, 79, 72
 | 74, 72, 80, 77, 78, 77, 83, 78, 76, 71, 77, 78, 72
 | 74, 72, 80, 77, 78, 77, 83, 78, 76, 71, 77, 78, 72
 | 74, 72, 80, 77, 78, 77, 83, 78, 76, 71, 77, 78, 72
 | 74, 72, 80, 76, 78, 77, 83, 78, 76, 71, 77, 78, 72
 | 74, 71, 82, 76, 77, 79, 83, 79, 75, 71, 76, 80, 72
 | 74, 71, 82, 76, 77, 78, 82, 79, 75, 71, 76, 80, 72
 | 74, 72, 81, 76, 77, 78, 83, 79, 75, 71, 76, 79, 72
 | 74, 72, 81, 76, 78, 78, 83, 79, 75, 71, 76, 79, 72
 | 74, 72, 81, 76, 78, 77, 83, 79, 76, 71, 76, 79, 72
 | 74, 72, 80, 76, 78, 77, 83, 78, 76, 71, 77, 78, 72
 | 74, 72, 80, 76, 78, 78, 83, 78, 76, 71, 77, 78, 72
 | 74, 72, 81, 76, 78, 78, 83, 78, 76, 71, 77, 79, 72
 | 74, 72, 80, 76, 78, 78, 83, 78, 76, 71, 77, 79, 72
 | 74, 72, 81, 76, 77, 79, 83, 79, 75, 71, 76, 80, 72
 | 74, 71, 82, 76, 77, 79, 83, 79, 75, 71, 76, 80, 72
 | 74, 72, 81, 76, 78, 78, 83, 79, 75, 71, 76, 79, 72
 | 74, 72, 81, 76, 78, 78, 83, 78, 76, 71, 76, 79, 72
 | 74, 72, 81, 76, 78, 78, 83, 78, 76, 71, 77, 79, 72
 | 74, 72, 81, 76, 77, 79, 83, 78, 76, 71, 77, 79, 72
 | 74, 72, 81, 76, 77, 79, 83, 78, 76, 71, 76, 79, 72
 | 74, 71, 82, 76, 77, 79, 82, 79, 75, 71, 76, 80, 72
 | 74, 71, 82, 76, 77, 79, 82, 79, 75, 71, 76, 80, 72
 | 74, 72, 81, 76, 77, 79, 83, 78, 76, 71, 76, 79, 72
 | 77, 76, 74, 81, 83, 70, 77, 72, 81, 75, 82, 71, 75
 | 77, 76, 74, 81, 82, 70, 77, 72, 81, 75, 82, 72, 75
 | 77, 76, 74, 81, 83, 70, 77, 73, 81, 75, 81, 72, 75
 | 77, 76, 74, 81, 83, 70, 77, 73, 80, 75, 81, 72, 75
 | 77, 76, 74, 81, 83, 70, 77, 73, 80, 75, 80, 72, 75
 | 78, 76, 74, 81, 82, 70, 77, 74, 79, 75, 80, 72, 76
 | 77, 76, 74, 81, 82, 71, 77, 73, 81, 75, 82, 72, 75
 | 77, 76, 74, 81, 82, 70, 77, 73, 81, 75, 82, 72, 75
 | 77, 76, 74, 81, 82, 70, 77, 73, 80, 75, 81, 72, 75
 | 77, 76, 74, 81, 83, 70, 77, 73, 80, 75, 81, 72, 75
 | 77, 76, 74, 81, 83, 70, 77, 73, 80, 74, 81, 72, 75
 | 77, 76, 74, 81, 83, 70, 77, 73, 80, 74, 80, 72, 75
 | 77, 76, 74, 81, 83, 70, 77, 74, 79, 74, 80, 72, 75
 | 78, 76, 74, 81, 82, 70, 77, 73, 80, 75, 80, 72, 76
 | 78, 76, 74, 82, 83, 70, 77, 73, 80, 75, 80, 71, 76
 | 78, 76, 74, 82, 82, 70, 77, 73, 80, 75, 81, 71, 75
 | 77, 76, 74, 81, 83, 70, 77, 72, 81, 75, 81, 71, 75
 | 77, 77, 73, 81, 83, 70, 76, 72, 81, 75, 82, 71, 75
 | 77, 76, 74, 81, 82, 71, 77, 73, 81, 74, 82, 72, 75
 | 77, 76, 74, 81, 82, 71, 77, 73, 80, 74, 81, 72, 75
 | 77, 76, 74, 82, 82, 70, 77, 72, 81, 75, 81, 71, 75
 | 77, 76, 74, 81, 82, 71, 77, 73, 80, 74, 81, 72, 75
 | 77, 76, 74, 81, 83, 70, 77, 73, 80, 75, 81, 71, 75
 | 78, 76, 74, 81, 83, 70, 77, 74, 79, 75, 80, 72, 75
 | 78, 76, 74, 81, 82, 70, 77, 73, 79, 75, 80, 72, 76
 | 77, 76, 74, 81, 83, 70, 77, 73, 79, 75, 80, 72, 75
 | 77, 76, 74, 80, 82, 71, 77, 72, 81, 75, 82, 72, 75
 | 77, 76, 74, 80, 83, 70, 76, 72, 82, 75, 83, 71, 75
 | 77, 76, 74, 80, 82, 71, 77, 72, 81, 75, 82, 72, 75
 | 77, 76, 73, 81, 83, 70, 77, 72, 81, 75, 82, 71, 75
 | 77, 77, 74, 80, 82, 70, 76, 72, 82, 75, 83, 71, 75
 | 76, 76, 74, 80, 82, 71, 77, 73, 81, 74, 82, 72, 74
 | 77, 78, 73, 81, 81, 71, 76, 72, 83, 76, 81, 71, 75
 | 77, 78, 73, 81, 81, 71, 76, 72, 83, 76, 81, 71, 75
 | 77, 78, 73, 81, 81, 70, 76, 72, 83, 76, 81, 71, 75
 | 77, 78, 73, 81, 81, 70, 76, 72, 83, 76, 82, 71, 75
 | 77, 78, 73, 81, 81, 70, 76, 71, 83, 76, 82, 71, 75
 | 78, 78, 73, 81, 82, 69, 76, 72, 82, 76, 82, 70, 76
 | 78, 78, 73, 81, 82, 69, 76, 72, 82, 76, 81, 70, 76
 | 78, 78, 73, 82, 82, 69, 75, 72, 81, 76, 81, 70, 76
 | 78, 78, 73, 82, 81, 69, 75, 72, 81, 76, 81, 70, 76
 | 79, 78, 73, 83, 82, 69, 76, 72, 80, 76, 80, 70, 77
 | 79, 77, 73, 82, 82, 69, 76, 73, 79, 76, 79, 71, 77
 | 79, 77, 73, 83, 81, 69, 76, 73, 79, 76, 79, 71, 77
 | 80, 77, 73, 82, 80, 69, 76, 74, 78, 77, 78, 71, 78
 | 79, 77, 73, 82, 81, 69, 76, 73, 79, 76, 79, 71, 77
 | 79, 77, 73, 82, 82, 69, 76, 72, 80, 76, 80, 71, 77
 | 78, 78, 73, 82, 82, 69, 76, 72, 81, 76, 81, 71, 76
 | 78, 78, 73, 82, 82, 69, 76, 72, 81, 76, 81, 70, 76
 | 77, 78, 73, 81, 82, 70, 76, 72, 82, 76, 82, 71, 75
 | 77, 78, 73, 81, 82, 70, 76, 72, 83, 76, 82, 71, 75
 | 77, 78, 73, 81, 81, 70, 76, 72, 83, 76, 82, 71, 75
 | 77, 78, 73, 81, 81, 71, 76, 72, 82, 76, 81, 71, 75
 | 77, 78, 73, 81, 81, 71, 76, 72, 83, 76, 81, 71, 75
 | 77, 78, 73, 81, 81, 70, 76, 72, 82, 76, 81, 71, 75
 | 77, 78, 73, 81, 81, 70, 75, 71, 83, 76, 81, 71, 76
 | 77, 78, 73, 81, 81, 70, 75, 71, 83, 76, 81, 71, 76
 | 77, 78, 73, 82, 81, 70, 75, 71, 83, 76, 81, 71, 76
 | 78, 78, 72, 82, 81, 69, 75, 71, 83, 76, 81, 70, 76
 | 78, 78, 72, 82, 81, 69, 75, 71, 82, 76, 81, 70, 76
 | 78, 78, 72, 82, 81, 69, 75, 71, 82, 77, 81, 70, 76
 | 78, 78, 72, 82, 81, 69, 75, 72, 82, 77, 81, 70, 76
 | 79, 78, 72, 82, 81, 69, 75, 72, 81, 77, 81, 70, 77
 | 79, 78, 72, 83, 81, 69, 75, 72, 81, 77, 80, 70, 77
 | 79, 78, 72, 83, 81, 69, 75, 72, 80, 77, 80, 70, 77
 | 79, 78, 73, 83, 81, 69, 75, 72, 80, 77, 80, 70, 77
 | 80, 78, 73, 83, 81, 69, 75, 72, 79, 77, 79, 70, 78
 | 79, 78, 73, 83, 81, 69, 75, 72, 79, 77, 79, 71, 77
 | 80, 78, 73, 82, 81, 69, 75, 73, 79, 77, 79, 71, 78
 | 80, 77, 73, 83, 81, 69, 75, 73, 79, 77, 79, 71, 78
 | 80, 77, 73, 82, 80, 69, 76, 73, 78, 77, 78, 71, 78
 | 80, 77, 73, 82, 81, 69, 76, 73, 78, 77, 78, 71, 78
 | 79, 78, 73, 83, 82, 69, 76, 72, 80, 76, 80, 70, 77
 | 79, 78, 72, 83, 81, 69, 75, 72, 80, 77, 80, 70, 77
 | 78, 78, 73, 81, 82, 69, 76, 72, 82, 76, 81, 71, 76
 | 79, 78, 73, 82, 81, 69, 75, 72, 81, 77, 80, 70, 77
 | 79, 78, 72, 83, 81, 69, 75, 72, 80, 77, 80, 70, 77
 | 77, 78, 73, 81, 81, 70, 76, 72, 83, 76, 82, 71, 75
 | 77, 78, 73, 81, 81, 70, 75, 71, 83, 76, 81, 71, 76
 | 78, 78, 73, 81, 81, 69, 75, 71, 82, 76, 82, 71, 76
 | 78, 78, 72, 82, 81, 69, 75, 71, 82, 76, 81, 70, 76
 | 78, 79, 72, 83, 80, 69, 75, 71, 82, 77, 80, 70, 76
 | 78, 79, 72, 83, 80, 69, 75, 71, 82, 78, 80, 70, 77
 | 79, 80, 72, 83, 80, 69, 74, 71, 81, 78, 80, 70, 77
 | 79, 80, 72, 82, 80, 69, 74, 71, 81, 78, 80, 70, 77
 | 79, 80, 72, 83, 80, 68, 74, 71, 81, 78, 80, 70, 78
 | 80, 79, 72, 82, 80, 68, 74, 71, 81, 78, 80, 70, 78
 | 80, 79, 72, 83, 80, 68, 74, 71, 80, 78, 79, 70, 78
 | 79, 80, 72, 83, 80, 68, 74, 71, 81, 78, 80, 70, 78
 | 78, 80, 72, 83, 80, 69, 75, 71, 82, 78, 80, 70, 77
 | 79, 80, 72, 83, 80, 69, 74, 71, 81, 78, 80, 70, 77
 | 79, 80, 72, 83, 80, 69, 74, 71, 81, 78, 80, 70, 77
 | 79, 80, 72, 82, 80, 68, 74, 71, 81, 78, 80, 70, 78
 | 80, 80, 72, 83, 80, 68, 74, 71, 81, 78, 80, 70, 78
 | 80, 80, 72, 83, 80, 68, 74, 71, 80, 79, 79, 70, 78
 | 80, 80, 72, 82, 80, 68, 74, 71, 80, 79, 79, 70, 78
 | 80, 80, 72, 83, 80, 68, 74, 71, 80, 79, 79, 70, 78
 | 79, 80, 72, 83, 80, 69, 74, 71, 82, 78, 80, 70, 77
 | 78, 80, 72, 83, 80, 69, 75, 71, 82, 78, 80, 70, 77
 | 79, 80, 72, 83, 80, 69, 74, 71, 82, 78, 80, 70, 77
 | 79, 80, 72, 83, 80, 69, 75, 71, 82, 78, 80, 70, 77
 | 79, 80, 72, 83, 80, 69, 74, 71, 81, 78, 80, 70, 77
 | 80, 80, 72, 82, 80, 68, 74, 71, 80, 79, 79, 70, 78
 | 80, 80, 72, 83, 80, 68, 74, 71, 80, 78, 79, 70, 78
 | 80, 80, 72, 83, 80, 68, 74, 71, 80, 79, 79, 70, 78
 | 80, 79, 72, 82, 80, 68, 74, 72, 80, 78, 79, 70, 78
 | 81, 80, 72, 82, 80, 68, 74, 72, 80, 79, 79, 70, 79
 | 81, 79, 72, 82, 80, 68, 74, 72, 79, 79, 79, 70, 79
 | 80, 79, 72, 82, 80, 68, 74, 72, 80, 78, 79, 70, 78
 | 81, 79, 72, 82, 80, 68, 74, 72, 79, 78, 79, 70, 79
 | 79, 80, 72, 83, 80, 68, 74, 71, 81, 78, 80, 70, 77
 | 79, 80, 72, 82, 80, 68, 74, 71, 81, 78, 80, 70, 78
 | 79, 80, 72, 83, 80, 68, 74, 71, 81, 78, 80, 70, 78
 | 79, 80, 72, 82, 80, 69, 74, 71, 81, 78, 80, 70, 77
 | 80, 82, 71, 81, 78, 68, 74, 71, 79, 80, 78, 70, 79
 | 81, 83, 71, 81, 78, 69, 74, 71, 79, 81, 78, 70, 79
 | 81, 83, 71, 80, 78, 69, 73, 71, 79, 81, 78, 70, 79
 | 81, 82, 72, 80, 78, 69, 74, 72, 79, 81, 78, 70, 79
 | 81, 83, 72, 80, 77, 69, 74, 72, 78, 81, 77, 70, 80
 | 81, 83, 72, 79, 77, 70, 74, 72, 78, 81, 77, 71, 79
 | 80, 83, 72, 79, 77, 70, 74, 72, 78, 81, 77, 71, 79
 | 81, 83, 71, 81, 78, 68, 74, 71, 79, 81, 78, 70, 79
 | 81, 83, 71, 80, 78, 69, 73, 71, 79, 81, 78, 70, 79
 | 81, 83, 71, 80, 78, 69, 73, 71, 79, 81, 78, 70, 79
 | 81, 83, 72, 80, 78, 69, 73, 71, 79, 81, 78, 70, 79
 | 81, 82, 72, 80, 78, 69, 73, 72, 79, 81, 78, 70, 80
 | 81, 83, 72, 80, 78, 69, 74, 72, 79, 81, 78, 70, 79
 | 81, 83, 72, 80, 78, 69, 73, 72, 79, 81, 77, 70, 80
 | 81, 83, 72, 80, 77, 69, 74, 72, 78, 81, 77, 70, 79
 | 81, 83, 72, 80, 77, 69, 73, 72, 78, 81, 77, 70, 80
 | 81, 83, 72, 79, 77, 70, 74, 72, 78, 81, 77, 71, 79
 | 81, 83, 72, 79, 77, 70, 74, 72, 78, 81, 77, 71, 80
 | 81, 83, 72, 79, 77, 70, 74, 72, 78, 81, 77, 71, 80
 | 81, 83, 72, 79, 77, 70, 74, 72, 78, 81, 77, 71, 79
 | 80, 83, 72, 79, 77, 70, 74, 72, 78, 81, 77, 71, 79
 | 81, 82, 71, 80, 78, 69, 73, 71, 79, 81, 78, 70, 80
 | 81, 83, 72, 80, 78, 69, 73, 71, 79, 81, 78, 70, 79
 | 81, 83, 71, 81, 78, 68, 73, 71, 79, 81, 78, 70, 79
 | 81, 83, 71, 80, 78, 69, 73, 71, 79, 81, 78, 70, 79
 | 81, 83, 72, 79, 77, 70, 74, 72, 78, 81, 77, 71, 80
 | 80, 83, 72, 79, 77, 70, 74, 72, 78, 81, 77, 71, 79
 | 81, 83, 72, 79, 77, 70, 74, 72, 78, 81, 77, 71, 80
 | 80, 83, 72, 79, 77, 70, 74, 72, 78, 81, 77, 71, 80
 | 81, 83, 72, 79, 77, 70, 74, 72, 78, 81, 77, 71, 80
 | 81, 83, 72, 79, 77, 70, 74, 72, 78, 81, 77, 71, 80
 | 81, 83, 72, 80, 78, 69, 74, 72, 79, 81, 77, 70, 79
 | 81, 83, 71, 80, 78, 69, 73, 71, 79, 81, 78, 70, 79
 | 81, 83, 72, 80, 78, 69, 73, 72, 79, 81, 77, 70, 80
 | 81, 83, 72, 80, 77, 69, 73, 72, 78, 81, 77, 70, 80
 | 81, 83, 72, 80, 77, 69, 73, 72, 78, 81, 77, 70, 80
 | 81, 83, 72, 79, 77, 70, 74, 72, 78, 81, 77, 71, 80
 | 81, 83, 72, 79, 77, 70, 74, 72, 78, 81, 77, 71, 80
 | 81, 83, 72, 79, 77, 70, 74, 72, 78, 81, 77, 71, 80
 | 81, 83, 72, 79, 77, 69, 73, 72, 78, 81, 77, 70, 80
 | 80, 82, 72, 80, 78, 69, 74, 72, 79, 80, 78, 70, 79
 | 80, 82, 72, 80, 78, 70, 74, 72, 79, 80, 78, 70, 79
 | 80, 83, 72, 80, 78, 70, 74, 72, 79, 80, 78, 71, 79
 | 80, 83, 72, 80, 78, 70, 74, 72, 79, 80, 78, 70, 79
 | 80, 83, 72, 80, 78, 70, 74, 72, 79, 80, 78, 70, 79
 | 80, 83, 72, 80, 78, 70, 74, 72, 79, 80, 78, 71, 79
 | 80, 83, 72, 79, 77, 70, 74, 72, 78, 80, 77, 71, 79
 | 80, 83, 72, 80, 78, 70, 74, 72, 79, 80, 77, 71, 79
 | 80, 83, 72, 79, 77, 70, 74, 72, 78, 80, 77, 71, 79
 | 80, 83, 72, 79, 77, 70, 74, 72, 78, 80, 77, 71, 79
 | 80, 83, 72, 80, 78, 70, 74, 72, 79, 80, 78, 71, 79
 | 80, 83, 72, 80, 78, 70, 74, 72, 79, 80, 78, 71, 79
 | 80, 83, 72, 80, 78, 70, 74, 72, 79, 80, 78, 71, 79
 | 80, 83, 72, 80, 78, 70, 74, 72, 79, 80, 78, 71, 79
 | 80, 83, 72, 80, 78, 70, 74, 72, 79, 80, 78, 71, 79
 | 80, 83, 72, 79, 78, 70, 74, 72, 79, 80, 77, 71, 79
 | 80, 82, 72, 79, 77, 70, 74, 72, 78, 80, 77, 71, 79
 | 80, 82, 72, 79, 77, 70, 74, 72, 78, 80, 77, 71, 79
 | 80, 83, 72, 80, 78, 70, 74, 72, 79, 80, 78, 71, 79
 | 80, 83, 72, 80, 78, 70, 74, 72, 79, 80, 78, 71, 79
 | 80, 82, 72, 80, 78, 69, 74, 72, 79, 80, 78, 70, 79
 | 80, 83, 72, 80, 78, 69, 74, 72, 79, 80, 78, 70, 79
 | 80, 83, 72, 80, 78, 70, 74, 72, 79, 80, 78, 71, 79
 | 80, 83, 72, 80, 78, 70, 74, 72, 79, 80, 78, 71, 79
 | 80, 83, 72, 80, 78, 70, 74, 72, 79, 80, 77, 71, 79
 | 80, 83, 72, 79, 77, 70, 74, 72, 78, 80, 77, 71, 79
 | 80, 83, 72, 80, 78, 70, 74, 72, 79, 80, 78, 71, 79
 | 80, 83, 72, 80, 78, 70, 74, 72, 79, 80, 78, 71, 79
 | 82, 82, 71, 80, 78, 69, 73, 71, 78, 82, 77, 70, 80
 | 81, 83, 71, 80, 77, 69, 73, 72, 78, 82, 77, 70, 80
 | 81, 83, 72, 79, 77, 69, 73, 72, 78, 82, 77, 70, 80
 | 81, 83, 72, 79, 77, 70, 73, 72, 78, 81, 77, 71, 80
 | 81, 83, 72, 79, 77, 69, 73, 72, 78, 81, 77, 70, 80
 | 81, 83, 72, 79, 77, 69, 73, 72, 78, 81, 77, 70, 80
 | 81, 83, 71, 80, 77, 69, 73, 72, 78, 82, 77, 70, 80
 | 82, 83, 71, 80, 77, 69, 73, 72, 78, 82, 77, 70, 80
 | 82, 83, 71, 79, 77, 69, 73, 72, 78, 82, 77, 70, 80
 | 81, 83, 72, 79, 77, 69, 73, 72, 78, 82, 77, 70, 80
 | 81, 83, 72, 79, 77, 70, 73, 72, 78, 81, 77, 71, 80
 | 81, 83, 72, 79, 77, 69, 73, 72, 78, 81, 77, 70, 80
 | 81, 83, 72, 79, 77, 69, 73, 72, 78, 82, 77, 70, 80
 | 82, 83, 71, 80, 77, 69, 73, 72, 78, 82, 77, 70, 80
 | 82, 82, 71, 80, 77, 69, 73, 72, 78, 82, 77, 70, 80
 | 81, 82, 71, 80, 78, 69, 73, 71, 79, 82, 77, 70, 80
 | 81, 83, 71, 80, 77, 69, 73, 72, 78, 82, 77, 70, 80
 | 81, 83, 72, 79, 77, 69, 73, 72, 78, 81, 77, 71, 80
 | 81, 83, 72, 79, 77, 69, 73, 72, 78, 81, 77, 71, 80
 | 81, 83, 72, 79, 77, 69, 73, 72, 78, 82, 77, 70, 80
 | 82, 83, 71, 79, 77, 69, 73, 72, 78, 82, 77, 70, 80
 | 82, 82, 71, 80, 78, 69, 73, 71, 78, 82, 77, 70, 80
 | 81, 83, 72, 79, 77, 69, 73, 72, 78, 81, 77, 70, 80
 | 82, 83, 71, 80, 77, 69, 73, 72, 78, 82, 77, 70, 80
 | 82, 81, 71, 80, 78, 68, 73, 72, 78, 81, 77, 70, 81
 | 82, 80, 72, 80, 78, 68, 74, 72, 78, 81, 77, 70, 81
 | 82, 81, 72, 80, 78, 68, 74, 72, 78, 81, 77, 70, 81
 | 82, 80, 72, 80, 78, 68, 74, 72, 78, 81, 77, 70, 81
 | 82, 80, 72, 80, 78, 68, 74, 72, 78, 81, 77, 70, 82
 | 83, 80, 72, 80, 78, 68, 74, 72, 78, 80, 77, 70, 82
 | 83, 79, 72, 80, 78, 69, 74, 73, 77, 80, 77, 71, 82
 | 83, 79, 72, 80, 78, 69, 74, 73, 77, 79, 77, 71, 81
 | 83, 79, 72, 80, 78, 69, 74, 73, 77, 80, 77, 71, 81
 | 83, 79, 72, 80, 78, 69, 74, 73, 78, 80, 77, 70, 81
 | 83, 80, 72, 80, 78, 68, 74, 72, 78, 80, 77, 70, 81
 | 82, 80, 72, 80, 78, 68, 74, 72, 78, 81, 77, 70, 81
 | 82, 80, 72, 80, 78, 68, 74, 72, 78, 81, 77, 70, 81
 | 83, 80, 72, 80, 78, 68, 74, 72, 78, 81, 77, 70, 82
 | 83, 79, 72, 80, 78, 69, 74, 73, 77, 80, 77, 71, 81
 | 83, 79, 72, 80, 78, 69, 74, 73, 77, 80, 77, 71, 81
 | 83, 79, 72, 80, 78, 69, 74, 73, 77, 80, 77, 71, 82
 | 83, 79, 72, 80, 78, 69, 74, 73, 77, 80, 77, 70, 82
 | 83, 80, 72, 80, 78, 68, 74, 72, 78, 81, 77, 70, 81
 | 83, 80, 72, 80, 78, 68, 74, 72, 78, 81, 77, 70, 81
 | 83, 78, 72, 80, 78, 69, 74, 73, 77, 79, 77, 71, 81
 | 83, 78, 73, 80, 78, 69, 75, 74, 77, 79, 77, 71, 81
 | 82, 79, 72, 80, 78, 69, 74, 73, 77, 79, 77, 71, 81
 | 83, 79, 72, 80, 78, 69, 74, 73, 77, 79, 77, 71, 81
 | 83, 79, 72, 80, 78, 68, 74, 73, 78, 80, 77, 70, 81
 | 82, 80, 72, 80, 78, 68, 74, 72, 78, 81, 77, 70, 81
 | 83, 78, 73, 80, 78, 69, 74, 73, 77, 79, 77, 71, 81
 | 83, 79, 72, 80, 78, 69, 74, 73, 77, 80, 77, 71, 81
 | 83, 80, 72, 80, 78, 68, 74, 72, 78, 80, 77, 70, 81
 | 83, 79, 72, 80, 78, 68, 74, 72, 78, 80, 77, 70, 81
 | 82, 79, 72, 80, 79, 69, 74, 73, 78, 79, 77, 71, 81
 | 82, 79, 72, 80, 78, 69, 74, 73, 78, 80, 77, 71, 81
 | 83, 82, 71, 80, 77, 68, 73, 72, 78, 83, 77, 70, 81
 | 83, 81, 71, 80, 78, 68, 73, 72, 78, 82, 77, 70, 82
 | 82, 80, 72, 80, 78, 69, 74, 72, 78, 81, 77, 70, 82
 | 83, 80, 72, 79, 78, 69, 74, 72, 77, 81, 77, 70, 82
 | 82, 79, 72, 79, 78, 69, 74, 73, 77, 80, 76, 71, 82
 | 83, 79, 72, 79, 78, 69, 74, 73, 77, 80, 76, 71, 82
 | 83, 78, 73, 79, 78, 70, 75, 74, 77, 79, 76, 72, 81
 | 83, 77, 74, 79, 78, 70, 75, 75, 76, 78, 76, 73, 80
 | 83, 78, 73, 79, 78, 70, 75, 74, 76, 79, 76, 72, 81
 | 83, 78, 73, 79, 78, 70, 75, 74, 77, 79, 76, 72, 81
 | 83, 78, 73, 79, 78, 69, 74, 74, 77, 79, 76, 71, 82
 | 82, 79, 72, 79, 78, 69, 74, 73, 77, 80, 76, 71, 82
 | 82, 79, 72, 79, 78, 69, 74, 73, 77, 80, 76, 71, 82
 | 83, 80, 72, 79, 78, 69, 74, 73, 77, 81, 76, 70, 82
 | 82, 80, 72, 79, 78, 69, 74, 72, 77, 81, 77, 70, 82
 | 83, 81, 72, 80, 78, 68, 73, 72, 78, 82, 77, 70, 82
 | 83, 81, 71, 80, 77, 68, 73, 72, 78, 82, 77, 70, 81
 | 83, 82, 71, 79, 77, 68, 73, 72, 78, 83, 77, 70, 81
 | 83, 81, 71, 79, 77, 68, 73, 72, 78, 82, 77, 70, 81
 | 82, 81, 72, 79, 77, 69, 73, 72, 77, 82, 77, 70, 82
 | 82, 80, 72, 79, 77, 69, 73, 72, 77, 82, 76, 70, 82
 | 83, 80, 72, 79, 77, 69, 74, 72, 77, 81, 76, 70, 82
 | 82, 80, 72, 79, 78, 69, 74, 73, 77, 81, 76, 71, 83
 | 83, 80, 72, 79, 78, 69, 74, 73, 77, 81, 76, 70, 82
 | 83, 80, 72, 79, 78, 69, 74, 73, 77, 81, 76, 71, 83
 | 83, 79, 72, 79, 78, 69, 74, 73, 77, 80, 76, 71, 83
 | 83, 79, 72, 79, 78, 69, 74, 73, 77, 81, 77, 71, 82
 | 83, 80, 72, 79, 78, 69, 74, 73, 77, 81, 76, 71, 83
 | 83, 79, 72, 79, 77, 69, 74, 73, 77, 81, 76, 71, 83
 | 83, 79, 72, 79, 77, 69, 74, 73, 77, 80, 76, 71, 83
 | 83, 79, 72, 79, 78, 69, 74, 73, 77, 80, 76, 71, 82
 | 83, 79, 72, 79, 78, 69, 74, 73, 77, 80, 76, 71, 82
 | 83, 79, 72, 79, 78, 69, 74, 73, 77, 80, 76, 71, 82
 | 83, 79, 72, 79, 77, 69, 74, 73, 77, 80, 76, 71, 82
 | 83, 78, 73, 79, 78, 70, 74, 74, 77, 80, 76, 71, 82
 | 83, 78, 73, 79, 78, 70, 74, 74, 77, 79, 76, 72, 81
 | 83, 78, 73, 79, 78, 70, 75, 74, 76, 79, 76, 72, 81
 | 83, 78, 73, 79, 78, 70, 75, 74, 76, 79, 76, 72, 81
 | 83, 77, 73, 79, 78, 70, 75, 75, 76, 78, 76, 72, 81
 | 83, 77, 73, 79, 78, 70, 75, 75, 76, 78, 76, 72, 81
 | 83, 77, 73, 79, 78, 70, 75, 75, 76, 79, 76, 72, 81
 | 82, 77, 74, 79, 78, 71, 75, 75, 76, 78, 76, 73, 80
 | 82, 77, 74, 79, 78, 71, 75, 75, 76, 78, 76, 73, 80
 | 82, 77, 74, 79, 77, 71, 75, 75, 76, 78, 76, 73, 80
 | 82, 78, 73, 79, 77, 70, 75, 74, 76, 79, 76, 72, 81
 | 83, 78, 73, 79, 78, 70, 75, 74, 76, 79, 76, 72, 81
 | 83, 79, 72, 79, 78, 69, 74, 73, 77, 80, 76, 71, 82
 | 83, 79, 72, 79, 78, 69, 74, 73, 77, 80, 76, 71, 82
 | 83, 80, 72, 79, 78, 69, 74, 73, 77, 81, 76, 71, 82
 | 83, 81, 71, 79, 77, 68, 73, 72, 78, 83, 77, 70, 81
 | 83, 81, 71, 79, 77, 68, 73, 72, 78, 82, 77, 70, 82
 | 82, 81, 72, 79, 77, 69, 73, 72, 77, 82, 77, 70, 82
 | 83, 81, 71, 79, 77, 68, 73, 72, 77, 82, 77, 70, 82
 | 83, 81, 71, 79, 77, 68, 73, 72, 78, 83, 77, 70, 81
 | 83, 80, 72, 79, 77, 69, 74, 72, 77, 81, 76, 70, 82
 | 83, 79, 72, 79, 78, 69, 74, 73, 77, 80, 76, 71, 82
 | 83, 79, 72, 79, 78, 69, 74, 73, 77, 80, 76, 71, 82
 | 83, 78, 73, 79, 78, 69, 74, 74, 77, 79, 76, 71, 82
 | 83, 78, 73, 79, 78, 69, 74, 74, 77, 79, 76, 71, 81
 | 83, 77, 73, 79, 78, 70, 75, 75, 76, 78, 76, 72, 81
 | 83, 78, 73, 79, 78, 70, 75, 74, 76, 79, 76, 72, 81
 | 82, 77, 74, 79, 78, 71, 75, 75, 76, 78, 76, 73, 80
 | 82, 77, 74, 79, 77, 71, 75, 75, 76, 78, 76, 73, 80
 | 83, 82, 71, 79, 77, 68, 73, 72, 78, 83, 77, 70, 81
 | 83, 81, 71, 79, 77, 68, 73, 72, 78, 82, 77, 70, 82
 | 83, 82, 71, 79, 77, 69, 73, 72, 78, 83, 77, 70, 81
 | 83, 81, 71, 79, 77, 69, 73, 72, 77, 82, 76, 70, 82
 | 82, 81, 72, 79, 77, 69, 73, 72, 77, 82, 76, 70, 82
 | 83, 81, 71, 79, 77, 69, 73, 72, 77, 82, 76, 70, 82
 | 83, 81, 71, 79, 77, 69, 73, 72, 77, 82, 76, 70, 82
 | 82, 81, 72, 79, 77, 69, 73, 72, 77, 82, 76, 70, 82
 | 82, 80, 72, 79, 77, 69, 73, 72, 77, 81, 76, 71, 83
 | 82, 80, 72, 79, 77, 69, 74, 73, 77, 81, 76, 71, 83
 | 82, 80, 72, 79, 77, 69, 74, 73, 77, 81, 76, 71, 83
 | 82, 79, 72, 79, 77, 69, 74, 73, 77, 80, 76, 71, 82
 | 83, 79, 73, 79, 77, 70, 74, 74, 77, 80, 76, 71, 82
 | 83, 78, 73, 79, 77, 70, 74, 74, 76, 79, 76, 72, 81
 | 83, 79, 73, 79, 77, 70, 74, 74, 76, 80, 76, 72, 82
 | 82, 79, 72, 79, 77, 70, 74, 73, 77, 80, 76, 71, 82
 | 82, 79, 72, 79, 77, 69, 74, 73, 77, 80, 76, 71, 83
 | 82, 80, 72, 79, 77, 69, 74, 73, 77, 81, 76, 71, 83
 | 83, 81, 72, 79, 77, 69, 73, 72, 77, 82, 76, 71, 82
 | 82, 80, 72, 79, 77, 69, 74, 73, 77, 81, 76, 71, 83
 | 82, 80, 72, 79, 77, 69, 74, 73, 77, 81, 76, 71, 83
 | 82, 80, 72, 79, 77, 69, 74, 73, 77, 81, 76, 71, 83
 | 82, 80, 72, 79, 77, 69, 74, 73, 77, 81, 76, 71, 83
 | 82, 80, 72, 79, 77, 69, 74, 73, 77, 81, 76, 71, 83
 | 82, 79, 72, 79, 77, 69, 74, 73, 77, 80, 76, 71, 83
 | 82, 80, 72, 79, 77, 69, 74, 73, 77, 81, 76, 71, 83
 | 83, 79, 72, 79, 77, 70, 74, 73, 77, 80, 76, 71, 82
 | 83, 79, 73, 79, 77, 70, 74, 74, 76, 80, 76, 72, 82
 | 83, 79, 73, 79, 77, 70, 74, 74, 76, 80, 76, 72, 82
 | 83, 78, 73, 79, 77, 70, 74, 74, 76, 79, 76, 72, 82
 | 83, 79, 73, 79, 77, 70, 74, 74, 77, 80, 76, 72, 82
 | 83, 79, 72, 79, 77, 70, 74, 73, 77, 80, 76, 71, 83
 | 82, 79, 72, 79, 77, 69, 74, 73, 77, 81, 76, 71, 83
 | 82, 80, 72, 79, 77, 69, 74, 73, 77, 81, 76, 71, 83
 | 82, 80, 72, 79, 77, 69, 74, 73, 77, 81, 76, 71, 83
 | 83, 79, 73, 79, 77, 70, 74, 74, 76, 80, 76, 72, 82
 | 83, 78, 73, 79, 77, 70, 75, 74, 76, 79, 76, 72, 81
 | 83, 78, 73, 79, 77, 70, 74, 74, 76, 79, 76, 72, 81
 | 83, 78, 73, 79, 77, 70, 74, 74, 76, 79, 76, 72, 82
 | 83, 79, 73, 78, 77, 70, 74, 74, 76, 80, 76, 72, 82
 | 83, 79, 73, 79, 77, 70, 74, 74, 76, 80, 76, 72, 82
 | 83, 79, 72, 79, 77, 70, 74, 73, 76, 80, 76, 71, 82
 | 83, 79, 72, 79, 77, 70, 74, 73, 77, 80, 76, 71, 83
 | 82, 80, 72, 79, 77, 69, 74, 73, 77, 81, 76, 71, 83
 | 83, 80, 72, 79, 77, 69, 73, 73, 77, 81, 76, 71, 83
 | 83, 80, 72, 79, 77, 69, 74, 73, 77, 81, 76, 71, 83
 | 82, 80, 72, 79, 77, 69, 74, 73, 77, 81, 76, 71, 83
 | 82, 80, 72, 79, 77, 70, 74, 73, 77, 81, 76, 71, 82
 | 82, 80, 72, 78, 77, 70, 74, 73, 77, 81, 76, 71, 83
 | 83, 79, 72, 78, 77, 70, 74, 73, 77, 80, 76, 71, 83
 | 83, 79, 72, 78, 77, 70, 74, 73, 76, 80, 76, 71, 82
 | 83, 79, 73, 78, 77, 70, 74, 74, 76, 80, 76, 72, 82
 | 83, 79, 72, 78, 77, 70, 74, 73, 77, 80, 76, 71, 82
 | 82, 80, 72, 79, 77, 70, 74, 73, 77, 81, 76, 71, 83
 | 82, 80, 72, 79, 77, 69, 74, 73, 77, 81, 76, 71, 83 |];
 P=[6, 6, 6, 6, 6, 6, 6, 8, 8, 8, 8, 8, 8, 8, 8, 8, 8, 8, 6, 6, 6, 6, 6, 6, 6, 6, 6, 8, 8, 8, 8, 8, 8, 8, 8, 8, 8, 8, 8, 8, 8, 8, 8, 6, 6, 6, 6, 6, 6, 6, 6, 6, 6, 6, 8, 8, 8, 8, 8, 8, 8, 8, 8, 8, 8, 8, 8, 8, 8, 8, 8, 8, 8, 8, 8, 8, 8, 8, 8, 8, 8, 8, 6, 6, 8, 8, 8, 6, 6, 6, 6, 6, 6, 6, 6, 6, 6, 6, 8, 8, 8, 8, 8, 8, 8, 8, 8, 8, 12, 12, 12, 12, 12, 12, 12, 12, 12, 12, 12, 12, 12, 12, 12, 12, 12, 12, 12, 12, 12, 12, 12, 12, 3, 3, 3, 3, 3, 3, 3, 3, 3, 3, 3, 3, 3, 3, 3, 3, 3, 3, 3, 3, 3, 3, 3, 3, 3, 3, 3, 7, 7, 7, 7, 7, 7, 7, 7, 7, 7, 7, 7, 7, 7, 7, 7, 7, 7, 7, 7, 7, 7, 7, 7, 7, 7, 7, 7, 7, 7, 7, 7, 7, 7, 7, 7, 7, 7, 7, 7, 7, 7, 7, 7, 7, 7, 7, 7, 7, 7, 7, 7, 7, 7, 7, 7, 7, 7, 7, 7, 7, 7, 7, 7, 7, 7, 7, 7, 7, 7, 7, 7, 7, 5, 5, 5, 5, 5, 5, 5, 5, 5, 5, 5, 5, 5, 5, 5, 5, 5, 5, 5, 5, 5, 5, 5, 5, 5, 5, 5, 5, 5, 5, 11, 5, 9, 9, 9, 9, 9, 9, 9, 9, 4, 4, 4, 4, 4, 4, 4, 4, 5, 9, 9, 9, 9, 9, 9, 9, 9, 9, 9, 9, 9, 9, 4, 4, 4, 4, 4, 4, 4, 4, 4, 4, 4, 4, 9, 4, 4, 9, 9, 9, 9, 4, 4, 4, 4, 4, 4, 4, 4, 4, 4, 4, 4, 4, 4, 4, 4, 4, 4, 4, 4, 4, 4, 4, 4, 4, 4, 4, 4, 4, 4, 4, 4, 4, 2, 2, 2, 2, 2, 2, 2, 2, 2, 2, 2, 2, 2, 2, 2, 2, 2, 2, 2, 2, 2, 2, 2, 2, 2, 2, 2, 2, 2, 2, 2, 2, 2, 2, 2, 2, 2, 2, 2, 2, 2, 2, 2, 2, 2, 2, 2, 2, 2, 2, 2, 2, 2, 2, 2, 2, 2, 2, 2, 2, 2, 2, 2, 2, 2, 2, 2, 2, 2, 2, 2, 2, 2, 2, 2, 2, 2, 2, 2, 2, 2, 2, 2, 2, 2, 2, 2, 2, 2, 2, 2, 2, 1, 1, 1, 1, 1, 1, 1, 1, 1, 1, 1, 1, 1, 1, 1, 1, 1, 1, 1, 1, 1, 1, 1, 1, 1, 1, 1, 1, 1, 1, 1, 1, 10, 1, 1, 1, 1, 1, 1, 1, 1, 1, 1, 1, 1, 1, 1, 1, 1, 10, 1, 1, 1, 1, 13, 1, 13, 1, 1, 13, 13, 1, 1, 1, 1, 1, 1, 1, 1, 1, 1, 1, 1, 1, 1, 1, 1, 1, 1, 1, 1, 1, 1, 1, 1, 1, 1, 1, 1, 1, 1, 1, 1, 1, 1, 10, 1, 10, 1, 1, 1, 1, 1, 1, 13, 13, 1, 1, 1, 1, 1, 13, 13, 1, 13, 13, 13, 13, 13, 13, 13, 1, 1, 1, 1, 1, 1, 13, 13, 13, 1, 1, 1, 1, 1, 1, 1, 13, 13, 1, 13, 13, 13, 13, 13, 1, 1, 13, 13, 13 ];